words_train/words_670_SAT.qaiger
aag 57 16 0 1 41
26
28
18
30
32
16
22
2
6
20
4
12
10
24
14
8
114
34 5 3
36 11 7
38 36 9
40 4 2
42 41 38
44 42 35
46 38 34
48 46 13
50 47 12
52 51 49
54 21 19
56 20 18
58 57 55
60 48 15
62 49 14
64 63 61
66 65 58
68 64 59
70 69 67
72 70 18
74 72 53
76 71 19
78 76 52
80 79 75
82 81 44
84 75 67
86 22 16
88 23 17
90 89 87
92 60 54
94 61 55
96 95 93
98 97 90
100 96 91
102 101 99
104 102 85
106 103 84
108 107 105
110 108 82
112 109 83
114 113 111
i0 2 y[4]
i1 2 y[5]
i2 2 y[0]
i3 2 y[6]
i4 2 y[7]
i5 1 x[7]
i6 2 y[2]
i7 1 x[0]
i8 1 x[2]
i9 2 y[1]
i10 1 x[1]
i11 1 x[5]
i12 1 x[4]
i13 2 y[3]
i14 1 x[6]
i15 1 x[3]
o0 bv[0]
c
simplified
  >=
    1
    subtract
      add
        unary minus
          1
        1 x
      << 5
        2 y
