words_train/words_670_SAT.qaiger.qdimacs
p cnf 57 124
a 1 2 3 4 5 6 7 8 0
e 9 10 11 12 13 14 15 16 17 18 19 20 21 22 23 24 25 26 27 28 29 30 31 32 33 34 35 36 37 38 39 40 41 42 43 44 45 46 47 48 49 50 51 52 53 54 55 56 57 0
2 1 17 0
-2 -17 0
-1 -17 0
5 3 18 0
-5 -18 0
-3 -18 0
-18 4 19 0
18 -19 0
-4 -19 0
-2 -1 20 0
2 -20 0
1 -20 0
20 -19 21 0
-20 -21 0
19 -21 0
-21 17 22 0
21 -22 0
-17 -22 0
-19 -17 23 0
19 -23 0
17 -23 0
-23 6 24 0
23 -24 0
-6 -24 0
23 -6 25 0
-23 -25 0
6 -25 0
25 24 26 0
-25 -26 0
-24 -26 0
10 9 27 0
-10 -27 0
-9 -27 0
-10 -9 28 0
10 -28 0
9 -28 0
28 27 29 0
-28 -29 0
-27 -29 0
-24 7 30 0
24 -30 0
-7 -30 0
24 -7 31 0
-24 -31 0
7 -31 0
31 30 32 0
-31 -32 0
-30 -32 0
32 -29 33 0
-32 -33 0
29 -33 0
-32 29 34 0
32 -34 0
-29 -34 0
34 33 35 0
-34 -35 0
-33 -35 0
-35 -9 36 0
35 -36 0
9 -36 0
-36 26 37 0
36 -37 0
-26 -37 0
35 9 38 0
-35 -38 0
-9 -38 0
-38 -26 39 0
38 -39 0
26 -39 0
39 37 40 0
-39 -40 0
-37 -40 0
40 -22 41 0
-40 -41 0
22 -41 0
37 33 42 0
-37 -42 0
-33 -42 0
-11 -8 43 0
11 -43 0
8 -43 0
11 8 44 0
-11 -44 0
-8 -44 0
44 43 45 0
-44 -45 0
-43 -45 0
-30 -27 46 0
30 -46 0
27 -46 0
30 27 47 0
-30 -47 0
-27 -47 0
47 46 48 0
-47 -48 0
-46 -48 0
48 -45 49 0
-48 -49 0
45 -49 0
-48 45 50 0
48 -50 0
-45 -50 0
50 49 51 0
-50 -51 0
-49 -51 0
-51 42 52 0
51 -52 0
-42 -52 0
51 -42 53 0
-51 -53 0
42 -53 0
53 52 54 0
-53 -54 0
-52 -54 0
-54 -41 55 0
54 -55 0
41 -55 0
54 41 56 0
-54 -56 0
-41 -56 0
56 55 57 0
-56 -57 0
-55 -57 0
57 0
